n=4;
m=6;
time = NIGHT;
VEHICLES = {AB13,AB36,AC52,CB85,HG96,PH74,PH56}; %License numbers;
trucks = {AB13};
sedans = {AB36,AC52};
bikes = {HG96,PH74,PH56, CB85};
cost =[|2,4,3,5,1,6
       |6,2,3,1,5,4
       |3,5,6,4,2,1
       |1,2,6,4,5,3|];
